boundary        p p p
units           real

atom_style        full
special_bonds     lj/coul 0.0 0.0 1.0 dihedral yes
dielectric        1.0
pair_style        lj/cut  12.0
bond_style        harmonic
angle_style       harmonic
dihedral_style    harmonic
improper_style    harmonic
read_data       PAN_helix_2_3_1_iso+_inf.data
neighbor          0.3 bin
thermo_style      custom step etotal ke temp pe ebond eangle edihed eimp evdwl ecoul elong press pxx pyy pzz pxy pxz pyz lx ly lz vol density
thermo            10
thermo_modify     flush yes

pair_style        buck/coul/long  12.0 12.0
kspace_style      pppm 1e-4
include      X6paircoeffs.txt

fix 1 all nve
run               0

# Minimization parameters
minimize          1.0e-9 1.0e-9 5000 100000
# Dump minimized system
dump              1 all atom 1 min.dump
dump_modify       1 image yes scale no
fix 1 all nve
run               0
unfix 1

undump            1
write_data min.data

# MD parameters
run_style         respa 3 2 2 bond 1 pair 2 kspace 3
reset_timestep    0
timestep          4
dump              1 all atom 100 md.dump
dump_modify       1 image yes scale no
fix 1 all nvt temp 300.0 300.0 400.0
run 1000
write_restart restart.lammps
write_data md.data

