pair_coeff	1 0.0951 3.4729904729264844  # C_3
pair_coeff	2 0.0152 2.846421404458384  # H_
pair_coeff	3 0.0951 3.4729904729264844  # C_1
pair_coeff	4 0.0774 3.2625601957017367  # N_1
