pair_coeff	1	1	88366.71263953997 0.277775402593701 583.017658827027  #C_3  C_3
pair_coeff	1	2	17353.23732056762 0.2675420234086147 135.2359748362983  #C_3  H_
pair_coeff	1	3	88366.71263953997 0.277775402593701 583.017658827027  #C_3  C_1
pair_coeff	1	4	73336.23398577559 0.27099895253119854 438.304505283533  #C_3  N_1
pair_coeff	2	2	3407.7859921338422 0.2580358585042804 31.369150853370503  #H_  H_
pair_coeff	2	3	17353.23732056762 0.2675420234086147 135.2359748362983  #H_  C_1
pair_coeff	2	4	14401.588952879096 0.261250016679225 101.66851063553453  #H_  N_1
pair_coeff	3	3	88366.71263953997 0.277775402593701 583.017658827027  #C_1  C_1
pair_coeff	3	4	73336.23398577559 0.27099895253119854 438.304505283533  #C_1  N_1
pair_coeff	4	4	60862.32082837414 0.26454525753088204 329.511184512576  #N_1  N_1
